nApps = 206
nRes = 9
nActs = 428
nNetworks = 6

assignmentToResources = [2,1,2,3,1,3,3,3,3,3,3,2,1,2,1,2,3,1,2,3,2,3,3,1,3,3,3,2,2,1,1,1,1,3,3,1,3,2,1,3,3,3,3,1,3,3,3,3,1,3,1,3,2,3,3,1,2,3,2,3,2,3,3,3,1,2,3,3,3,2,1,2,2,2,1,2,1,1,1,2,3,2,2,2,3,1,1,3,2,2,2,1,2,2,2,2,2,2,2,1,5,5,5,5,4,4,5,5,5,6,6,4,4,4,4,6,6,6,6,6,6,6,6,6,6,6,5,4,4,5,5,4,4,5,6,4,4,5,6,6,6,6,6,6,6,6,5,5,5,4,4,4,4,4,4,4,4,4,6,6,4,4,6,6,6,6,5,4,4,4,4,6,6,6,6,6,4,4,4,6,6,6,6,4,4,6,6,6,6,6,6,6,5,6,4,6,6,6,4,5,6,6,6,6,5,5,5,5,5,5,5,5,5,4,4,4,4,5,6,6,5,5,5,6,4,6,5,5,5,5,5,5,5,5,5,4,4,4,8,6,7,4,8,4,9,5,9,6,8,5,9,6,8,6,8,5,9,5,9,5,9,5,7,6,7,4,9,4,9,5,7,4,8,6,7,4,9,6,8,5,9,5,7,4,8,5,9,5,7,4,9,9,9,9,7,9,9,9,9,7,8,8,9,8,9,8,8,7,7,7,8,8,7,8,8,8,8,9,9,9,9,9,9,8,9,7,9,8,9,7,7,8,7,7,8,8,8,7,9,9,9,9,8,8,8,9,9,9,8,7,8,8,9,7,8,8,8,7,9,8,9,8,8,8,7,8,8,9,9,9,8,8,8,8,9,9,7,7,8,8,8,7,8,9,8,9,7,8,8,8,7,8,8,7,7,9,9,7,7,9,9,9,9,7,8,8,9,9,9,7,8,7,9,9,8,8,8,7,9,9,7,9,9,7,7,7,8,9];

processingTimes = [72,112,136,128,128,136,48,48,136,104,120,80,152,152,128,72,160,56,120,128,168,160,128,112,128,88,112,160,72,136,96,96,120,136,72,96,136,136,112,112,96,168,64,152,72,112,128,64,96,104,136,136,72,96,152,96,104,136,112,56,120,168,120,112,96,128,120,88,88,80,120,160,64,168,72,120,80,144,72,136,128,144,144,120,120,160,120,128,136,168,128,88,104,104,88,136,152,72,160,120,5,3,5,5,500,4,100,100,100,4,3,6,5,4,4,4,4,4,4,4,3,3,3,500,4,4,500,500,4,3,4,4,500,4,3,500,500,4,3,3,500,5,3,3,3,4,3,3,5,500,3,500,4,3,3,3,4,4,4,4,23,4,3,4,3,3,3,5,5,3,4,500,4,23,3,13,4,4,4,500,500,8,500,3,100,4,4,4,4,5,3,3,500,23,5,3,3,500,5,3,8,3,3,4,500,5,4,3,500,5,5,500,4,3,3,3,100,3,4,4,3,3,4,3,500,500,500,3,3,4,4,4,500,3,3,3,3,4,4,4,4,7,7,3,3,3,3,4,4,3,3,4,4,16,16,4,4,4,4,3,3,3,3,3,3,4,4,3,3,8,8,5,5,4,4,23,23,4,4,5,5,3,3,5,5,3,3,4,4,5,5,5,3,5,5,500,4,100,100,100,4,3,6,5,4,4,4,4,4,4,4,3,3,3,500,4,4,500,500,4,3,4,4,500,4,3,500,500,4,3,3,500,5,3,3,3,4,3,3,5,500,3,500,4,3,3,3,4,4,4,4,23,4,3,4,3,3,3,5,5,3,4,500,4,23,3,13,4,4,4,500,500,8,500,3,100,4,4,4,4,5,3,3,500,23,5,3,3,500,5,3,8,3,3,4,500,5,4,3,500,5,5,500,4,3,3,3,100,3,4,4,3,3,4,3,500,500,500,3,3,4,4,4,500,3,3,3,3];

periods = [100000,10000,1000,10000,5000,20000,10000,20000,10000,10000,10000,50000,100000,100000,20000,100000,20000,10000,10000,100000,20000,100000,20000,10000,20000,20000,5000,100000,20000,10000,10000,20000,20000,20000,20000,20000,10000,20000,5000,50000,10000,20000,10000,20000,100000,100000,50000,10000,1000,10000,10000,20000,10000,10000,20000,20000,10000,10000,10000,100000,10000,100000,50000,10000,20000,10000,100000,1000,20000,20000,20000,10000,20000,10000,20000,10000,100000,20000,1000,10000,100000,50000,10000,10000,1000,20000,10000,100000,20000,20000,100000,10000,100000,100000,100000,20000,50000,10000,10000,50000,100000,100000,100000,100000,10000,10000,1000,1000,1000,10000,10000,5000,5000,5000,5000,20000,20000,10000,10000,10000,20000,20000,20000,20000,10000,10000,50000,100000,100000,100000,100000,20000,20000,100000,20000,10000,10000,10000,100000,20000,20000,20000,20000,20000,5000,5000,100000,20000,20000,10000,10000,10000,10000,10000,10000,20000,20000,20000,20000,20000,20000,20000,10000,10000,10000,10000,20000,5000,5000,5000,5000,50000,50000,50000,10000,10000,20000,20000,20000,100000,100000,100000,50000,1000,1000,10000,10000,10000,20000,20000,20000,20000,10000,20000,20000,50000,50000,10000,20000,10000,100000,100000,1000,1000,20000,20000,20000,20000,20000,10000,10000,10000,10000,100000,20000,1000,1000,10000,100000,100000,50000,10000,10000,1000,10000,100000,100000,100000,100000,20000,20000,50000,50000,10000,10000,50000,50000,10000,10000,10000,10000,10000,10000,10000,10000,100000,100000,100000,100000,100000,100000,100000,100000,100000,100000,100000,100000,100000,100000,20000,20000,20000,20000,20000,20000,20000,20000,20000,20000,20000,20000,20000,20000,20000,20000,20000,20000,20000,20000,20000,20000,20000,20000,20000,20000,20000,20000,10000,10000,10000,10000,100000,100000,100000,100000,10000,10000,1000,1000,1000,10000,10000,5000,5000,5000,5000,20000,20000,10000,10000,10000,20000,20000,20000,20000,10000,10000,50000,100000,100000,100000,100000,20000,20000,100000,20000,10000,10000,10000,100000,20000,20000,20000,20000,20000,5000,5000,100000,20000,20000,10000,10000,10000,10000,10000,10000,20000,20000,20000,20000,20000,20000,20000,10000,10000,10000,10000,20000,5000,5000,5000,5000,50000,50000,50000,10000,10000,20000,20000,20000,100000,100000,100000,50000,1000,1000,10000,10000,10000,20000,20000,20000,20000,10000,20000,20000,50000,50000,10000,20000,10000,100000,100000,1000,1000,20000,20000,20000,20000,20000,10000,10000,10000,10000,100000,20000,1000,1000,10000,100000,100000,50000,10000,10000,1000,10000,100000,100000,100000,100000,20000,20000,50000,50000,10000,10000,50000,50000];

assignmentToClusters = [1,2,3,4,5,6,7,8,9,10,11,12,13,14,15,14,16,17,2,18,19,14,20,21,16,22,23,14,19,24,25,26,27,19,19,19,28,16,29,30,31,32,33,34,35,36,37,10,38,39,11,40,25,41,16,19,42,43,10,14,44,45,46,47,19,48,49,50,19,51,16,52,16,53,54,55,56,57,58,59,14,60,61,62,63,16,10,14,19,64,65,31,66,14,14,16,12,67,68,69,70,71,72,73,74,75,76,77,78,79,80,81,82,83,84,85,86,87,88,89,90,91,92,93,94,95,96,97,98,99,100,101,102,103,104,105,106,107,108,109,110,111,112,113,114,115,116,117,118,119,120,121,122,123,124,125,126,127,128,129,130,131,132,133,134,135,136,137,138,139,140,141,142,143,144,145,146,147,148,149,150,151,152,153,154,155,156,157,158,159,160,161,162,163,164,165,166,167,168,169,170,171,172,173,174,175,176,177,178,179,180,181,182,183,184,185,186,187,188,189,190,191,192,193,194,195,196,197,198,199,200,201,202,203,204,205,206,2,2,10,10,10,10,11,11,14,14,14,14,14,14,14,14,14,14,14,14,14,14,16,16,16,16,16,16,16,16,16,16,16,16,19,19,19,19,19,19,19,19,19,19,19,19,19,19,19,19,25,25,31,31,70,71,72,73,74,75,76,77,78,79,80,81,82,83,84,85,86,87,88,89,90,91,92,93,94,95,96,97,98,99,100,101,102,103,104,105,106,107,108,109,110,111,112,113,114,115,116,117,118,119,120,121,122,123,124,125,126,127,128,129,130,131,132,133,134,135,136,137,138,139,140,141,142,143,144,145,146,147,148,149,150,151,152,153,154,155,156,157,158,159,160,161,162,163,164,165,166,167,168,169,170,171,172,173,174,175,176,177,178,179,180,181,182,183,184,185,186,187,188,189,190,191,192,193,194,195,196,197,198,199,200,201,202,203,204,205,206];

precedenceAdjList = [[],[],[],[],[],[],[],[],[],[],[244],[96],[],[],[],[252,254],[260],[],[238],[],[272],[250],[],[],[266,268],[],[],[],[278],[],[288],[],[],[286],[276],[],[],[],[],[],[290],[],[],[],[],[],[],[9],[],[],[],[],[],[],[24],[282],[],[],[242],[246],[],[],[],[],[274],[],[],[],[280],[],[262,264],[],[],[],[],[],[],[],[],[],[256],[],[],[],[],[270],[240],[258],[284],[],[],[],[],[248],[27],[],[],[],[],[],[],[],[],[],[],[],[],[],[],[],[],[],[],[],[],[],[],[],[],[],[],[],[],[],[],[],[],[],[],[],[],[],[],[],[],[],[],[],[],[],[],[],[],[],[],[],[],[],[],[],[],[],[],[],[],[],[],[],[],[],[],[],[],[],[],[],[],[],[],[],[],[],[],[],[],[],[],[],[],[],[],[],[],[],[],[],[],[],[],[],[],[],[],[],[],[],[],[],[],[],[],[],[],[],[],[],[],[],[],[],[],[],[],[],[],[],[],[],[],[],[],[],[],[],[],[],[],[],[],[],[],[],[],[],[],[],[],[1],[237],[47],[239],[86],[241],[50],[243],[13],[245],[59],[247],[93],[249],[80],[251],[21],[253],[94],[255],[15],[257],[95],[259],[72],[261],[16],[263],[70],[265],[85],[267],[37],[269],[64],[271],[34],[273],[35],[275],[34],[277],[28],[279],[20],[281],[55],[283],[20],[285],[52],[287],[91],[289],[100],[101],[102],[103],[104],[105],[106],[107],[108],[109],[110],[111],[112],[113],[114],[115],[116],[117],[118],[119],[120],[121],[122],[123],[124],[125],[126],[127],[128],[129],[130],[131],[132],[133],[134],[135],[136],[137],[138],[139],[140],[141],[142],[143],[144],[145],[146],[147],[148],[149],[150],[151],[152],[153],[154],[155],[156],[157],[158],[159],[160],[161],[162],[163],[164],[165],[166],[167],[168],[169],[170],[171],[172],[173],[174],[175],[176],[177],[178],[179],[180],[181],[182],[183],[184],[185],[186],[187],[188],[189],[190],[191],[192],[193],[194],[195],[196],[197],[198],[199],[200],[201],[202],[203],[204],[205],[206],[207],[208],[209],[210],[211],[212],[213],[214],[215],[216],[217],[218],[219],[220],[221],[222],[223],[224],[225],[226],[227],[228],[229],[230],[231],[232],[233],[234],[235],[236]];